p cnf 180 297
-4  1  -2  0
-7  4  -5  0
10  7  8  0
13  -10  11  0
-19  -16  17  0
-22  -19  -20  0
25  22  23  0
31  -28  -29  0
-34  31  32  0
-37  34  35  0
-40  -37  38  0
-43  -40  41  0
46  -43  44  0
-52  -49  50  0
-55  52  -53  0
61  58  59  0
64  61  -62  0
-70  -67  -68  0
73  -70  71  0
76  73  -74  0
79  -76  -77  0
82  -79  -80  0
85  -82  -83  0
-88  -85  86  0
91  88  89  0
-94  -91  -92  0
97  94  -95  0
109  -106  -107  0
-112  -109  110  0
-118  -115  116  0
124  -121  -122  0
127  -124  -125  0
-130  -127  -128  0
-136  -133  134  0
142  139  -140  0
151  148  -149  0
157  -154  155  0
-160  -157  -158  0
-166  -163  -164  0
-169  166  -167  0
-172  -169  170  0
-175  172  -173  0
178  175  -176  0
-5  1  -2  0
8  5  -6  0
11  7  8  0
11  8  9  0
14  -13  11  0
14  13  -10  0
14  10  -11  0
-17  16  -13  0
17  -13  -14  0
-17  14  -15  0
20  -17  -18  0
-23  22  -20  0
-23  22  19  0
-23  19  -20  0
-23  -20  -21  0
-26  22  23  0
26  23  24  0
29  -28  -26  0
29  28  25  0
-29  25  -26  0
-32  31  29  0
-32  31  -28  0
-32  28  29  0
35  32  33  0
-38  37  -35  0
38  37  34  0
38  -34  35  0
-38  -35  -36  0
-41  38  39  0
-44  -43  -41  0
-44  43  -40  0
44  40  41  0
-47  -46  43  0
-47  -43  -44  0
47  -44  -45  0
50  -49  46  0
50  -46  -47  0
53  52  50  0
53  52  -49  0
53  -49  50  0
-56  -55  53  0
56  -52  53  0
-56  53  -54  0
59  58  55  0
-62  -61  -59  0
-62  -61  58  0
-65  64  -62  0
-68  -67  -65  0
68  -67  64  0
68  -65  66  0
-71  67  -68  0
71  68  69  0
-74  -73  -70  0
77  76  -74  0
-77  -74  75  0
-80  -79  -77  0
80  -79  -76  0
80  76  -77  0
83  82  -80  0
-83  -82  -79  0
-83  80  -81  0
-86  -85  82  0
-86  83  -84  0
-89  88  -86  0
-89  88  85  0
-89  85  -86  0
-89  86  -87  0
-92  -91  -88  0
-92  -89  -90  0
95  -94  92  0
95  94  91  0
-95  -91  -92  0
-95  92  -93  0
-98  97  95  0
98  97  -94  0
-98  95  96  0
101  -100  -98  0
101  -98  -99  0
-104  103  101  0
104  -100  -101  0
-107  -106  -104  0
-110  -109  107  0
-110  109  -106  0
110  -106  107  0
110  107  -108  0
-113  112  110  0
-113  -109  110  0
-116  -115  113  0
-116  -115  -112  0
-116  113  114  0
-119  118  -116  0
119  -115  -116  0
119  -116  -117  0
-122  -118  119  0
122  119  120  0
125  -124  -121  0
-125  122  -123  0
128  -127  -125  0
128  124  -125  0
128  -125  126  0
-131  -130  -128  0
131  128  129  0
134  -133  131  0
134  -131  -132  0
137  -136  134  0
-137  -136  133  0
-137  -133  134  0
-137  -134  -135  0
140  -139  136  0
-143  142  140  0
-143  -142  -139  0
-143  139  140  0
-143  -140  -141  0
146  -145  143  0
146  145  142  0
-149  -148  -145  0
149  145  146  0
-149  146  147  0
152  151  148  0
152  149  -150  0
155  154  -151  0
-155  152  153  0
158  -157  -155  0
158  157  -154  0
158  154  155  0
-158  155  156  0
-161  160  -157  0
-161  157  158  0
161  158  -159  0
164  161  162  0
-167  166  -163  0
167  163  -164  0
-167  -164  165  0
-170  -166  -167  0
-170  -167  168  0
-173  -172  -170  0
-173  172  169  0
173  -170  171  0
176  175  172  0
176  -173  174  0
179  -178  175  0
-179  176  177  0
-6  5  -3  0
6  2  -3  0
-9  -5  -6  0
12  -11  8  0
12  8  -9  0
-15  14  12  0
15  11  -12  0
-18  -17  -15  0
-18  -17  -14  0
-18  -14  -15  0
21  20  18  0
21  20  -17  0
-24  -23  21  0
24  -20  21  0
27  -26  -24  0
-27  -26  23  0
-27  23  24  0
-30  -29  -27  0
33  32  29  0
33  29  30  0
36  35  -33  0
-36  35  -32  0
36  32  33  0
-39  -38  -36  0
39  38  -35  0
-39  -35  -36  0
-42  -41  39  0
-42  -38  39  0
45  44  -41  0
48  -44  -45  0
51  -50  -47  0
-54  -53  -51  0
54  -53  50  0
57  -56  54  0
60  -59  57  0
60  56  57  0
63  -62  60  0
63  -62  -59  0
-66  -65  -63  0
-66  65  62  0
-69  -68  66  0
69  -68  65  0
-69  -65  66  0
-72  -71  -68  0
-72  -68  69  0
-75  74  72  0
75  -71  -72  0
78  -77  -75  0
-78  77  74  0
-81  -80  78  0
84  83  81  0
84  -83  -80  0
-84  80  -81  0
90  -89  87  0
93  -92  90  0
-96  95  -93  0
96  -95  92  0
96  -92  93  0
-99  98  96  0
99  95  -96  0
102  101  99  0
-102  101  98  0
-102  -98  99  0
-105  104  102  0
105  101  102  0
108  107  104  0
-108  -104  -105  0
-111  -110  -108  0
111  110  107  0
-114  -113  111  0
114  113  110  0
117  116  -114  0
-117  -116  113  0
-120  119  116  0
120  -116  -117  0
-123  122  119  0
123  119  -120  0
126  -125  -123  0
126  -125  122  0
-126  122  123  0
-129  -128  -126  0
132  131  128  0
-132  -128  129  0
135  134  -132  0
135  -134  -131  0
-135  131  -132  0
-138  -137  -135  0
138  -137  134  0
138  134  -135  0
-141  -137  138  0
-144  -143  -140  0
-150  149  147  0
150  -149  -146  0
-150  -146  -147  0
153  -152  -149  0
153  -149  -150  0
-156  -155  152  0
159  -158  156  0
-159  158  155  0
159  155  -156  0
162  -161  -159  0
162  -158  159  0
-165  164  -162  0
168  -167  -164  0
-171  -170  -168  0
-171  170  167  0
174  173  170  0
174  170  171  0
-177  176  -174  0
177  176  -173  0
-180  179  -177  0
180  179  176  0
